% File represents an instance of a Composite Structure problem to be solved by a CP framework
% Created on 2025-03-26 10:41:52.943
T = 58;
n = 36;
m = 60;
edges = [(2, 1),
(8, 7),
(14, 13),
(20, 19),
(26, 25),
(32, 31),
(3, 2),
(9, 8),
(15, 14),
(21, 20),
(27, 26),
(33, 32),
(4, 3),
(10, 9),
(16, 15),
(22, 21),
(28, 27),
(33, 34),
(4, 5),
(11, 10),
(17, 16),
(23, 22),
(29, 28),
(35, 34),
(5, 6),
(11, 12),
(18, 17),
(23, 24),
(29, 30),
(35, 36),
(1, 7),
(7, 13),
(13, 19),
(19, 25),
(31, 25),
(2, 8),
(8, 14),
(20, 14),
(20, 26),
(32, 26),
(3, 9),
(9, 15),
(21, 15),
(21, 27),
(33, 27),
(4, 10),
(10, 16),
(22, 16),
(22, 28),
(28, 34),
(11, 5),
(11, 17),
(23, 17),
(23, 29),
(29, 35),
(12, 6),
(18, 12),
(18, 24),
(24, 30),
(30, 36)];
counts = [|10, 12, 10, 16,
|10, 14, 10, 18,
|10, 14, 10, 22,
|10, 14, 10, 24,
|10, 10, 10, 24,
|8, 10, 8, 24,
|10, 12, 10, 14,
|10, 12, 10, 18,
|10, 12, 10, 20,
|10, 14, 10, 22,
|10, 14, 10, 24,
|8, 12, 8, 24,
|10, 12, 10, 12,
|10, 12, 10, 14,
|10, 12, 10, 16,
|10, 14, 10, 18,
|10, 14, 10, 20,
|10, 14, 10, 24,
|10, 10, 10, 12,
|10, 12, 10, 16,
|10, 14, 10, 20,
|10, 16, 10, 20,
|10, 16, 10, 22,
|10, 12, 10, 22,
|8, 10, 8, 12,
|8, 10, 8, 16,
|8, 14, 8, 18,
|8, 16, 8, 18,
|8, 16, 8, 20,
|8, 12, 8, 20,
|8, 10, 8, 16,
|8, 12, 8, 20,
|8, 16, 8, 20,
|6, 16, 6, 18,
|6, 16, 6, 20,
|6, 12, 6, 18|];
